NAME          ClpDefau  FREE
ROWS
 N  OBJROW
 L  ZMUNI1_PCT
 L  ZMUNI2_PCT
 L  ZMUNI3_PCT
 L  ZMUNI4_PCT
 L  ZMUNI5_PCT
 L  ZMUNI6_PCT
 L  ZMUNI7_PCT
 L  ZMUNI8_PCT
 L  ZMUNI9_PCT
COLUMNS
    QMUNI1 OBJROW 1.          
    QMUNI1 ZMUNI1_PCT 30044.5556  
    QMUNI1 ZMUNI2_PCT 1972.9614   
    QMUNI1 ZMUNI3_PCT 4504.9668   
    QMUNI1 ZMUNI4_PCT 3246.3074   
    QMUNI1 ZMUNI5_PCT 984.7641    
    QMUNI1 ZMUNI6_PCT 1054.9545   
    QMUNI1 ZMUNI7_PCT 2896.4996   
    QMUNI1 ZMUNI8_PCT 2095.0318   
    QMUNI1 ZMUNI9_PCT 1104.927    
    QMUNI2 OBJROW 1.          
    QMUNI2 ZMUNI1_PCT 1677.7038   
    QMUNI2 ZMUNI2_PCT 35664.3676  
    QMUNI2 ZMUNI3_PCT 2489.09     
    QMUNI2 ZMUNI4_PCT 2592.8497   
    QMUNI2 ZMUNI5_PCT  -239.3722  
    QMUNI2 ZMUNI6_PCT  -82.5882   
    QMUNI2 ZMUNI7_PCT 1267.6239   
    QMUNI2 ZMUNI8_PCT 1423.645    
    QMUNI2 ZMUNI9_PCT 1249.6948   
    QMUNI3 OBJROW 1.          
    QMUNI3 ZMUNI1_PCT 4381.3705   
    QMUNI3 ZMUNI2_PCT 2830.6961   
    QMUNI3 ZMUNI3_PCT 31769.9433  
    QMUNI3 ZMUNI4_PCT 5220.4132   
    QMUNI3 ZMUNI5_PCT 500.4883    
    QMUNI3 ZMUNI6_PCT 627.1362    
    QMUNI3 ZMUNI7_PCT 2492.5232   
    QMUNI3 ZMUNI8_PCT 2062.6068   
    QMUNI3 ZMUNI9_PCT 1230.2398   
    QMUNI4 OBJROW 1.          
    QMUNI4 ZMUNI1_PCT 3480.1483   
    QMUNI4 ZMUNI2_PCT 3223.6099   
    QMUNI4 ZMUNI3_PCT 5703.7354   
    QMUNI4 ZMUNI4_PCT 109883.1177 
    QMUNI4 ZMUNI5_PCT 230.9799    
    QMUNI4 ZMUNI6_PCT 377.0828    
    QMUNI4 ZMUNI7_PCT 2135.849    
    QMUNI4 ZMUNI8_PCT 1941.6809   
    QMUNI4 ZMUNI9_PCT 1446.9146   
    QMUNI5 OBJROW 1.          
    QMUNI5 ZMUNI1_PCT 277.5192    
    QMUNI5 ZMUNI2_PCT 53.7872     
    QMUNI5 ZMUNI3_PCT 183.2962    
    QMUNI5 ZMUNI4_PCT 119.7815    
    QMUNI5 ZMUNI5_PCT 40654.3732  
    QMUNI5 ZMUNI6_PCT 3360.5576   
    QMUNI5 ZMUNI7_PCT 743.4845    
    QMUNI5 ZMUNI8_PCT 384.14      
    QMUNI5 ZMUNI9_PCT 102.8061    
    QMUNI6 OBJROW 1.          
    QMUNI6 ZMUNI1_PCT 550.8423    
    QMUNI6 ZMUNI2_PCT 265.6936    
    QMUNI6 ZMUNI3_PCT 434.6848    
    QMUNI6 ZMUNI4_PCT 325.5844    
    QMUNI6 ZMUNI5_PCT 3668.2129   
    QMUNI6 ZMUNI6_PCT 35600.2808  
    QMUNI6 ZMUNI7_PCT 1276.3977   
    QMUNI6 ZMUNI8_PCT 784.6832    
    QMUNI6 ZMUNI9_PCT 508.1176    
    QMUNI7 OBJROW 1.          
    QMUNI7 ZMUNI1_PCT 1725.0061   
    QMUNI7 ZMUNI2_PCT 998.6877    
    QMUNI7 ZMUNI3_PCT 1513.4812   
    QMUNI7 ZMUNI4_PCT 1153.3737   
    QMUNI7 ZMUNI5_PCT 902.3667    
    QMUNI7 ZMUNI6_PCT 1034.3552   
    QMUNI7 ZMUNI7_PCT 39370.346   
    QMUNI7 ZMUNI8_PCT 3091.8122   
    QMUNI7 ZMUNI9_PCT 1135.8261   
    QMUNI8 OBJROW 1.          
    QMUNI8 ZMUNI1_PCT 1390.2664   
    QMUNI8 ZMUNI2_PCT 1167.1066   
    QMUNI8 ZMUNI3_PCT 1396.37     
    QMUNI8 ZMUNI4_PCT 1097.2977   
    QMUNI8 ZMUNI5_PCT 638.9618    
    QMUNI8 ZMUNI6_PCT 696.1823    
    QMUNI8 ZMUNI7_PCT 3527.4505   
    QMUNI8 ZMUNI8_PCT 33168.0298  
    QMUNI8 ZMUNI9_PCT 1767.7307   
    QMUNI9 OBJROW 1.          
    QMUNI9 ZMUNI1_PCT 560.5697    
    QMUNI9 ZMUNI2_PCT 865.9363    
    QMUNI9 ZMUNI3_PCT 652.8855    
    QMUNI9 ZMUNI4_PCT 567.8177    
    QMUNI9 ZMUNI5_PCT 105.2857    
    QMUNI9 ZMUNI6_PCT 137.7106    
    QMUNI9 ZMUNI7_PCT 926.2085    
    QMUNI9 ZMUNI8_PCT 1423.645    
    QMUNI9 ZMUNI9_PCT 32231.7123  
RHS
    RHS ZMUNI1_PCT  -0.69055127
    RHS ZMUNI2_PCT  -0.77755163
    RHS ZMUNI3_PCT  -0.78935463
    RHS ZMUNI4_PCT -0.083317878
    RHS ZMUNI5_PCT  -1.36630303
    RHS ZMUNI6_PCT  -1.21445816
    RHS ZMUNI7_PCT  -4.0671555 
    RHS ZMUNI8_PCT  -3.09312439
    RHS ZMUNI9_PCT  -2.44008488
BOUNDS
 LO BOUND QMUNI1 -0.000684748
 UP BOUND QMUNI1      1.1e+10
 LO BOUND QMUNI2 -0.000446239
 UP BOUND QMUNI2      1.1e+10
 LO BOUND QMUNI3 -0.000493684
 UP BOUND QMUNI3      1.1e+10
 LO BOUND QMUNI4 -0.000215727
 UP BOUND QMUNI4      1.1e+10
 LO BOUND QMUNI5 -0.000234213
 UP BOUND QMUNI5      1.1e+10
 LO BOUND QMUNI6 -0.000409171
 UP BOUND QMUNI6      1.1e+10
 LO BOUND QMUNI7  -3.87952e-5
 UP BOUND QMUNI7      1.1e+10
 LO BOUND QMUNI8 -0.000176973
 UP BOUND QMUNI8      1.1e+10
 LO BOUND QMUNI9 -0.000156245
 UP BOUND QMUNI9      1.1e+10
ENDATA
